\ This file was automatically generated by Zimpl
\ set a := {1 to 4};
\ set c := {1 to 3};
\ set ac := a * c;
\ param Q[c] := <1> 250000, <2> 500000, <3>600000;
\ param D[a] := <1> 100000, <2> 200000, <3> 300000, <4> 400000;
\ param AC[ac] :=                  <1, 1> 12, <1, 2>  9, <1, 3> 10,                 <2, 1> 10, <2, 2> 11, <2, 3> 14,           
\       <3, 1> 8,  <3, 2> 11, <3, 3> 13,                 <4, 1> 11, <4, 2> 13, <4, 3>  9;
\ var X[ac] >= 0;
\ minimize custo :        sum <ax, cx> in ac:         X[ax, cx] * AC[ax, cx];
\ subto c1:     forall <cx> in c :         sum <ax> in a :             X[ax, cx] <= Q[cx];
\ subto c2:     forall <ax> in a :         sum <cx> in c :             X[ax, cx] >= D[ax];
\Problem name: file
Minimize
 custo:  +12 X#1#1 +9 X#1#2 +10 X#1#3 +10 X#2#1 +11 X#2#2 +14 X#2#3
  +8 X#3#1 +11 X#3#2 +13 X#3#3 +11 X#4#1 +13 X#4#2 +9 X#4#3
 
Subject to
 c1_1:
  + X#4#1 + X#3#1 + X#2#1 + X#1#1 <= 250000
 c1_2:
  + X#4#2 + X#3#2 + X#2#2 + X#1#2 <= 500000
 c1_3:
  + X#4#3 + X#3#3 + X#2#3 + X#1#3 <= 600000
 c2_1:
  + X#1#3 + X#1#2 + X#1#1 >= 100000
 c2_2:
  + X#2#3 + X#2#2 + X#2#1 >= 200000
 c2_3:
  + X#3#3 + X#3#2 + X#3#1 >= 300000
 c2_4:
  + X#4#3 + X#4#2 + X#4#1 >= 400000
Bounds
 0 <= X#1#1 <= +inf
 0 <= X#1#2 <= +inf
 0 <= X#1#3 <= +inf
 0 <= X#2#1 <= +inf
 0 <= X#2#2 <= +inf
 0 <= X#2#3 <= +inf
 0 <= X#3#1 <= +inf
 0 <= X#3#2 <= +inf
 0 <= X#3#3 <= +inf
 0 <= X#4#1 <= +inf
 0 <= X#4#2 <= +inf
 0 <= X#4#3 <= +inf
End
